100
424 721 109 1083 923 1100 364 300 155 294 125 792 466 916 861 450 267 448 131 749 290 249 989 538 1047 1081 764 350 248 347 837 612 398 118 452 493 170 350 396 516 594 666 950 395 195 404 317 676 577 422 195 852 724 724 803 955 136 289 572 801 605 606 408 344 974 1083 600 568 229 702 312 726 379 568 966 412 635 419 586 968 593 1065 508 555 745 602 772 391 114 523 165 349 698 791 1010 779 656 445 577 389 
324 621 9 983 823 1000 264 200 55 194 25 692 366 816 761 350 167 348 31 649 190 149 889 438 947 981 664 250 148 247 737 512 298 18 352 393 70 250 296 416 494 566 850 295 95 304 217 576 477 322 95 752 624 624 703 855 36 189 472 701 505 506 308 244 874 983 500 468 129 602 212 626 279 468 866 312 535 319 486 868 493 965 408 455 645 502 672 291 14 423 65 249 598 691 910 679 556 345 477 289 
27716
